data/solutions/planning/wellformed/moderate/highest_rank_objective/wellformed_moderate_instance96_cplex.sol
Elapsed time: 3.83
Nodes explored: 2844
Nodes left: -
Relative gap: -
Upper bound: 573600.0
Lower bound: -
C[0]=9105.0
C[1]=9105.0
C[2]=9104.0
C[3]=9104.0
C[4]=9104.0
C[5]=9104.0
y[0]=2
y[1]=2
y[2]=3
y[3]=0
y[4]=5
y[5]=1
y[6]=0
y[7]=1
y[8]=3
y[9]=1
y[10]=2
y[11]=5
y[12]=2
y[13]=2
y[14]=4
y[15]=4
y[16]=2
y[17]=0
y[18]=3
y[19]=4
y[20]=5
y[21]=1
y[22]=1
y[23]=2
y[24]=0
y[25]=4
y[26]=2
y[27]=2
y[28]=1
y[29]=3
y[30]=0
y[31]=3
y[32]=1
y[33]=4
y[34]=2
y[35]=5
y[36]=5
y[37]=2
y[38]=5
y[39]=5
y[40]=3
y[41]=2
y[42]=4
y[43]=3
y[44]=3
y[45]=3
y[46]=0
y[47]=5
y[48]=3
y[49]=5
