data/solutions/planning/wellformed/moderate/highest_rank_objective/wellformed_moderate_instance96_cplex.log
Found incumbent of value 54626.000000 after 0.00 sec. (0.03 ticks)
Tried aggregator 2 times.
Aggregator did 6 substitutions.
Reduced MIP has 56 rows, 301 columns, and 606 nonzeros.
Reduced MIP has 300 binaries, 0 generals, 0 SOSs, and 0 indicators.
Presolve time = 0.00 sec. (0.68 ticks)
Probing time = 0.00 sec. (0.30 ticks)
Cover probing fixed 0 vars, tightened 4 bounds.
Tried aggregator 1 time.
Reduced MIP has 56 rows, 301 columns, and 606 nonzeros.
Reduced MIP has 300 binaries, 1 generals, 0 SOSs, and 0 indicators.
Presolve time = 0.00 sec. (0.45 ticks)
Probing time = 0.00 sec. (0.19 ticks)
Clique table members: 50.
MIP emphasis: balance optimality and feasibility.
MIP search method: dynamic search.
Parallel mode: none, using 1 thread.
Root relaxation solution time = 0.00 sec. (0.69 ticks)

        Nodes                                         Cuts/
   Node  Left     Objective  IInf  Best Integer    Best Bound    ItCnt     Gap

*     0+    0                        54626.0000     1984.0000            96.37%
      0     0     9104.3333    11    54626.0000     9104.3333       75   83.33%
*     0+    0                        10325.0000     9104.3333            11.82%
      0     0     9105.0000    14    10325.0000      Cuts: 10       96   11.82%
*     0+    0                         9930.0000     9105.0000             8.31%
      0     0     9105.0000    14     9930.0000      Cuts: 14      118    8.31%
*     0+    0                         9608.0000     9105.0000             5.24%
      0     0     9105.0000    10     9608.0000       Cuts: 5      132    5.24%
*     0+    0                         9591.0000     9105.0000             5.07%
      0     0     9105.0000    12     9591.0000       Cuts: 6      147    5.07%
*     0+    0                         9432.0000     9105.0000             3.47%
*     0+    0                         9399.0000     9105.0000             3.13%
*     0+    0                         9302.0000     9105.0000             2.12%
*     0+    0                         9201.0000     9105.0000             1.04%
      0     2     9105.0000     9     9201.0000     9105.0000      152    1.04%
Elapsed time = 0.02 sec. (18.04 ticks, tree = 0.01 MB, solutions = 9)
*    40+   40                         9179.0000     9105.0000             0.81%
*    74    71      integral     0     9143.0000     9105.0000      485    0.42%
*   174+  160                         9128.0000     9105.0000             0.25%
*   174+  157                         9122.0000     9105.0000             0.19%
*   174+  156                         9120.0000     9105.0000             0.16%
*   174+  153                         9113.0000     9105.0000             0.09%
*   533+  324                         9112.0000     9105.0000             0.08%
*   633+  265                         9108.0000     9105.0000             0.03%
    693   279     9105.0000     6     9108.0000     9105.0000     2324    0.03%
    694   279     9105.0000     6     9108.0000     9105.0000     2324    0.03%
    695   277        cutoff           9108.0000     9105.0000     2329    0.03%
    696   277     9105.0000     6     9108.0000     9105.0000     2333    0.03%
    697   275        cutoff           9108.0000     9105.0000     2334    0.03%
    698   273        cutoff           9108.0000     9105.0000     2336    0.03%
    699   271        cutoff           9108.0000     9105.0000     2339    0.03%
    700   269        cutoff           9108.0000     9105.0000     2342    0.03%
    701   269     9105.0000     6     9108.0000     9105.0000     2345    0.03%
*   933+    1                         9105.0000     9105.0000             0.00%

Cover cuts applied:  1
Lift and project cuts applied:  1

Root node processing (before b&c):
  Real time             =    0.02 sec. (18.05 ticks)
Sequential b&c:
  Real time             =    0.36 sec. (285.19 ticks)
                          ------------
Total (root+branch&cut) =    0.38 sec. (303.24 ticks)

Populate: phase II 
Tried aggregator 2 times.
Aggregator did 6 substitutions.
Reduced MIP has 56 rows, 301 columns, and 606 nonzeros.
Reduced MIP has 300 binaries, 0 generals, 0 SOSs, and 0 indicators.
Presolve time = 0.00 sec. (0.68 ticks)
Probing time = 0.00 sec. (0.30 ticks)
Cover probing fixed 0 vars, tightened 4 bounds.
Clique table members: 50.
MIP emphasis: balance optimality and feasibility.
MIP search method: dynamic search.
Parallel mode: none, using 1 thread.
Root relaxation solution time = 0.00 sec. (0.69 ticks)

        Nodes                                         Cuts/
   Node  Left     Objective  IInf  Best Integer    Best Bound    ItCnt     Gap

*     0+    0                         9105.0000        0.0000           100.00%
      0     0     9104.3333    11     9105.0000     9104.3333       75    0.01%
      0     2     9105.0000    10     9105.0000     9105.0000       75    0.00%
Elapsed time = 0.03 sec. (15.16 ticks, tree = 0.01 MB, solutions = 42)
      7     9     9105.0000     8     9105.0000     9105.0000      105    0.00%
      8    10     9105.0000     8     9105.0000     9105.0000      107    0.00%
      9    11     9105.0000     8     9105.0000     9105.0000      113    0.00%
     10    12     9105.0000     8     9105.0000     9105.0000      114    0.00%
     11    13     9105.0000     8     9105.0000     9105.0000      115    0.00%
     12    14     9105.0000     8     9105.0000     9105.0000      121    0.00%
     13    15     9105.0000     8     9105.0000     9105.0000      131    0.00%
     14    16     9105.0000     9     9105.0000     9105.0000      132    0.00%
     15    17     9105.0000     9     9105.0000     9105.0000      133    0.00%
     34    36     9105.0000     9     9105.0000     9105.0000      229    0.00%
Elapsed time = 1.34 sec. (974.40 ticks, tree = 0.02 MB, solutions = 68)

Root node processing (before b&c):
  Real time             =    0.73 sec. (19.34 ticks)
Sequential b&c:
  Real time             =    2.72 sec. (1518.09 ticks)
                          ------------
Total (root+branch&cut) =    3.45 sec. (1537.44 ticks)
